(set-info :origin "driver benchmark extracted from Microsoft SDV")
(set-logic HORN)
(declare-fun Proc5 (Int Int Int Bool Int Int Int Int) Bool)
(declare-fun Proc38 (Int Int Int Bool Int Int) Bool)
(declare-fun Proc37 (Int Int Int Bool) Bool)
(declare-fun Proc3 (Int Int Int Bool Int Int Int Int) Bool)
(declare-fun Proc20 (Int Int Int Bool Int Int) Bool)
(declare-fun Proc25 (Int Int Int Bool) Bool)
(declare-fun Proc41 (Int Int Int Bool) Bool)
(declare-fun Proc30 (Int Int Int Bool Int Int Int Bool Int) Bool)
(declare-fun Proc23 (Int Int Int Bool) Bool)
(declare-fun Proc12 (Int Int Int Bool Int Int Int Int) Bool)
(declare-fun Proc13 (Int Int Int Bool Int Int Int Int) Bool)
(declare-fun Proc8
             (Int Int Int Bool Int Int Int Int Int Int Int Int Int Int Int Int)
             Bool)
(declare-fun Proc40 (Int Int Int Bool Int Int Int Int Int) Bool)
(declare-fun Proc27 (Int Int Int Bool Int Int) Bool)
(declare-fun Proc34 (Int Int Int Bool) Bool)
(declare-fun Proc26 (Int Int Int Bool) Bool)
(declare-fun Proc35 (Int Int Int Bool Int Int Int Int) Bool)
(declare-fun Proc22 (Int Int Int Bool Int Int Int) Bool)
(declare-fun Proc11 (Int Int Int Bool Int Int Int) Bool)
(declare-fun Proc39 (Int Int Int Bool Int) Bool)
(declare-fun Proc16 (Int Int Int Bool Int Int Int Int) Bool)
(declare-fun Proc4 (Int Int Int Bool Int Int Int) Bool)
(declare-fun Proc14 (Int Int Int Bool Int) Bool)
(declare-fun Proc18 (Int Int Int Bool Int Int) Bool)
(declare-fun Proc21 (Int Int Int Bool Int Int Int) Bool)
(declare-fun Proc7 (Int Int Int Bool Int Int Int Int Int) Bool)
(declare-fun Proc15 (Int Int Int Bool Int Int Int Int Int) Bool)
(declare-fun Proc36 (Int Int Int Bool Int) Bool)
(declare-fun Proc31 (Int Int Int Bool Int) Bool)
(declare-fun Proc32 (Int Int Int Bool Int Int) Bool)
(declare-fun Proc6 (Int Int Int Bool Int Int Int Int Int) Bool)
(declare-fun Proc29 (Int Int Int Bool Int Int) Bool)
(declare-fun Proc19 (Int Int Int Bool Int Int Int Int Int) Bool)
(declare-fun Proc17 (Int Int Int Bool Int) Bool)
(declare-fun Proc28 (Int Int Int Bool Int) Bool)
(declare-fun Proc1 (Int Int Int Bool Int Int Int) Bool)
(declare-fun Proc10 (Int Int Int Bool Int Int Int Int Int Int Int Int) Bool)
(declare-fun Proc2 (Int Int Int Bool Int Int) Bool)
(declare-fun Proc24 (Int Int Int Bool) Bool)
(declare-fun Proc0 (Int Int Int Bool Int Int) Bool)
(declare-fun Proc33 (Int Int Int Bool) Bool)
(declare-fun Proc42 (Int Int Int Bool Int Bool Int Int Int) Bool)
(declare-fun Proc9 (Int Int Int Bool Int Int Int) Bool)
(assert (forall ((A Int) (B Int) (C Int) (D Int) (E Int) (F Int) (G Int) (H Bool))
  (let ((a!1 (not (or (not H) (not (Proc0 G F E H 0 D)) (not (= C 0))))))
    (=> a!1 (Proc1 G F E H B A C)))))
(assert (forall ((A Int)
         (B Int)
         (C Int)
         (D Int)
         (E Int)
         (F Int)
         (G Int)
         (H Bool)
         (I Int)
         (J Int))
  (let ((a!1 (or (not H) (not (Proc2 J I G H F E)) (not (and (= D 0) (= C E))))))
    (=> (not a!1) (Proc3 J I G H B A D C)))))
(assert (forall ((A Int)
         (B Int)
         (C Int)
         (D Int)
         (E Int)
         (F Int)
         (G Int)
         (H Bool)
         (I Int)
         (J Int)
         (K Int)
         (L Int))
  (let ((a!1 (and (not (<= J (+ 4 L))) (not (<= J K)))))
  (let ((a!2 (or (not H)
                 (not (= L K))
                 (not a!1)
                 (not (Proc4 J I G H L F E))
                 (not (and (= D 0) (= C E))))))
    (=> (not a!2) (Proc5 K I G H B A D C))))))
(assert (forall ((A Int)
         (B Int)
         (C Int)
         (D Int)
         (E Int)
         (F Int)
         (G Int)
         (H Bool)
         (I Int)
         (J Int)
         (K Int)
         (L Int)
         (M Int)
         (N Int))
  (let ((a!1 (not (and (= C E) (= B G) (= A F)))))
  (let ((a!2 (or (not (and (= F 1) (= E D))) a!1)))
  (let ((a!3 (and a!2 (or (= F 1) (not (= E 0)) a!1))))
  (let ((a!4 (not (or (not H) (not (Proc6 N M L H K J I G F)) a!3))))
    (=> a!4 (Proc7 N M L H K J C B A))))))))
(assert (forall ((A Int)
         (B Int)
         (C Int)
         (D Int)
         (E Int)
         (F Int)
         (G Int)
         (H Bool)
         (I Int)
         (J Int)
         (K Int))
  (let ((a!1 (not (and (not (= J 0))
                       (= I (+ 52 J))
                       (Proc8 G F E H I 99 J 0 D 0 0 0 1 1 1 C)))))
  (let ((a!2 (not (or (not H) (= K 0) (= J 0) a!1 (not (= B 0))))))
    (=> a!2 (Proc9 G F E H K A B))))))
(assert (forall ((A Int)
         (B Int)
         (C Int)
         (D Int)
         (E Int)
         (F Int)
         (G Int)
         (H Bool)
         (I Int)
         (J Int)
         (K Int)
         (L Int)
         (M Int))
  (let ((a!1 (and (not (<= K (+ 4 M))) (not (<= K L))))
        (a!2 (not (and (not (= E 0)) (= D (+ 8 E)) (Proc11 K J I H D 98 0)))))
  (let ((a!3 (or (not H)
                 (not (= M L))
                 (not a!1)
                 (not (Proc10 K J I H G 48 0 7 0 0 M F))
                 a!2
                 (not (and (= C F) (= B K))))))
    (=> (not a!3) (Proc12 L J I H G A C B))))))
(assert (forall ((A Int)
         (B Int)
         (C Int)
         (D Int)
         (E Int)
         (F Int)
         (G Int)
         (H Bool)
         (I Int)
         (J Int)
         (K Int)
         (L Int)
         (M Int)
         (N Int)
         (O Int)
         (P Int)
         (Q Int)
         (R Int)
         (S Int)
         (T Int)
         (U Int)
         (V Int)
         (W Int)
         (X Int))
  (let ((a!1 (and (not (<= V (+ 1 X))) (not (<= V W))))
        (a!2 (and (not (<= T (+ 1 U))) (not (<= T V))))
        (a!3 (and (not (<= R (+ 1 S))) (not (<= R T))))
        (a!4 (and (not (<= P (+ 1 Q))) (not (<= P R))))
        (a!5 (and (not (<= N (+ 1 O))) (not (<= N P)))))
  (let ((a!6 (or (not H)
                 (not (= X W))
                 (not a!1)
                 (not (= U V))
                 (not a!2)
                 (not (= S T))
                 (not a!3)
                 (not (= Q R))
                 (not a!4)
                 (not (= O P))
                 (not a!5)
                 (= M 0)
                 (= L 0)
                 (= K 0)
                 (= J 0)
                 (= I 0)
                 (= G 0)
                 (= F 0)
                 (not (and (= E 0) (= D N))))))
    (=> (not a!6) (Proc13 W C B H M A E D))))))
(assert (forall ((A Int) (B Int) (C Int) (D Int) (H Bool))
  (=> (not (or (not H) (= D 0))) (Proc14 C B A H D))))
(assert (forall ((A Int)
         (B Int)
         (C Int)
         (D Int)
         (E Int)
         (F Int)
         (G Int)
         (H Bool)
         (I Int)
         (J Int)
         (K Int)
         (L Int)
         (M Int)
         (N Int)
         (O Int)
         (P Int)
         (Q Int)
         (R Int)
         (S Int))
  (let ((a!1 (not (and (= Q (- 1073741670)) (= S Q))))
        (a!2 (not (and (= P (- 1073741811)) (= S P)))))
  (let ((a!3 (and (or (not (= S 0)) (not (= R S)))
                  (or a!1 (not (= R S)))
                  (or a!2 (not (= R S))))))
    (=> (not (or (not H) a!3)) (Proc8 O N M H L K J I G F E D C B A R))))))
(assert (forall ((A Int)
         (B Int)
         (C Int)
         (D Int)
         (E Int)
         (F Int)
         (G Int)
         (H Bool)
         (I Int)
         (J Int)
         (K Int)
         (L Int)
         (M Int)
         (N Int)
         (O Int)
         (P Int)
         (Q Int))
  (let ((a!1 (not (and (= N (- 1073741823)) (= P N))))
        (a!2 (not (and (= M (- 1073741670)) (= P M))))
        (a!3 (not (and (= L (- 1073741771)) (= P L))))
        (a!4 (not (and (= K (- 1073741824)) (= P K)))))
  (let ((a!5 (and (or (= Q 0) (not (= P 0)) (not (= O P)))
                  (or (= Q 0) a!1 (not (= O P)))
                  (or (= Q 0) a!2 (not (= O P)))
                  (or (= Q 0) a!3 (not (= O P)))
                  (or (= Q 0) a!4 (not (= O P))))))
    (=> (not (or (not H) a!5)) (Proc10 J I G H F E D C B A Q O))))))
(assert (forall ((A Int)
         (B Int)
         (C Int)
         (D Int)
         (E Int)
         (F Int)
         (G Int)
         (H Bool)
         (I Int)
         (J Int)
         (K Int)
         (L Int)
         (M Int)
         (N Int)
         (O Int)
         (P Int)
         (Q Int)
         (R Int)
         (S Int)
         (T Int)
         (U Int)
         (V Int))
  (let ((a!1 (and (not (<= T (+ 4 V))) (not (<= T U))))
        (a!2 (or (not (Proc15 T R Q H P S O V N)) (not (and (= M 259) (= L T)))))
        (a!4 (or (not (Proc15 T R Q H K S J V I)) (not (and (= M 259) (= L T)))))
        (a!6 (or (not (Proc15 T R Q H G S F V E)) (not (and (= M 259) (= L T)))))
        (a!8 (or (not (Proc15 T R Q H D S C V B)) (not (and (= M 259) (= L T))))))
  (let ((a!3 (and a!2 (not (and (= M 259) (= L T)))))
        (a!5 (and a!4 (not (and (= M 259) (= L T)))))
        (a!7 (and a!6 (not (and (= M 259) (= L T)))))
        (a!9 (and a!8 (not (and (= M 259) (= L T))))))
  (let ((a!10 (or (not H)
                  (not (= V U))
                  (not a!1)
                  (and (or (= S 0) a!3)
                       (or (= S 0) a!5)
                       (or (= S 0) a!7)
                       (or (= S 0) a!9)))))
    (=> (not a!10) (Proc16 U R Q H A S M L)))))))
(assert (forall ((A Int) (B Int) (C Int) (D Int) (E Int) (F Int) (H Bool))
  (=> (not (or (not H) (= F 0))) (Proc11 E D C H F B A))))
(assert (forall ((A Int) (B Int) (C Int) (D Int) (E Int) (H Bool))
  (let ((a!1 (not (or (not H) (not (Proc17 E D C H B)) (not (= A 0))))))
    (=> a!1 (Proc0 E D C H B A)))))
(assert (forall ((A Int)
         (B Int)
         (C Int)
         (D Int)
         (E Int)
         (F Int)
         (G Int)
         (H Bool)
         (I Int))
  (let ((a!1 (and (not (<= F (+ 4 I))) (not (<= F G)))))
  (let ((a!2 (or (not H)
                 (not (= I G))
                 (not a!1)
                 (not (Proc18 F E D H C I))
                 (not (and (= B 0) (= A F))))))
    (=> (not a!2) (Proc4 G E D H C B A))))))
(assert (forall ((A Int) (B Int) (C Int) (D Int) (E Int) (F Int) (G Int) (H Bool))
  (let ((a!1 (and (not (<= E (+ 4 G))) (not (<= E F)))))
  (let ((a!2 (or (not H)
                 (not (= G F))
                 (not a!1)
                 (not (Proc14 E D C H G))
                 (not (and (= B 0) (= A E))))))
    (=> (not a!2) (Proc2 F D C H B A))))))
(assert (forall ((A Int)
         (B Int)
         (C Int)
         (D Int)
         (E Int)
         (F Int)
         (G Int)
         (H Bool)
         (I Int)
         (J Int)
         (K Int)
         (L Int)
         (M Int)
         (N Int))
  (let ((a!1 (not (and (= C E) (= B G) (= A F)))))
  (let ((a!2 (or (not (and (= F 1) (= E D))) a!1)))
  (let ((a!3 (and a!2 (or (= F 1) (not (= E I)) a!1))))
  (let ((a!4 (not (or (not H) (not (Proc19 N M L H K J I G F)) a!3))))
    (=> a!4 (Proc6 N M L H K J C B A))))))))
(assert (forall ((A Int)
         (B Int)
         (C Int)
         (D Int)
         (E Int)
         (F Int)
         (G Int)
         (H Bool)
         (I Int)
         (J Int))
  (let ((a!1 (and (not (<= G (+ 1 J))) (not (<= G I)))))
  (let ((a!2 (or (not H)
                 (not (= J I))
                 (not a!1)
                 (not (Proc20 G F E H J D))
                 (not (and (= C G) (= B D))))))
    (=> (not a!2) (Proc21 I F E H A C B))))))
(assert (forall ((A Int) (B Int) (C Int) (D Int) (E Int) (H Bool))
  (let ((a!1 (not (or (not H) (not (= E 1))))))
    (=> a!1 (Proc20 D C B H A E)))))
(assert (forall ((A Int)
         (B Int)
         (C Int)
         (D Int)
         (E Int)
         (F Int)
         (G Int)
         (H Bool)
         (I Int)
         (J Int)
         (K Int))
  (let ((a!1 (or (not (and (= K J) (= I G))) (not (and (= F K) (= E I)))))
        (a!2 (or (= D 1)
                 (not (and (= K J) (= I G)))
                 (not (and (= F K) (= E I)))))
        (a!3 (or (not (= A 1))
                 (not (and (= K B) (= I A)))
                 (not (and (= F K) (= E I)))))
        (a!4 (or (= A 1)
                 (not (and (= K B) (= I A)))
                 (not (and (= F K) (= E I))))))
  (let ((a!5 (and a!1
                  a!2
                  (or (not (= D 1)) (not (Proc21 J D G H C B A)) (and a!3 a!4)))))
    (=> (not (or (not H) a!5)) (Proc22 J D G H C F E))))))
(assert (forall ((A Int) (B Int) (C Int) (H Bool)) (=> false (Proc23 C B A H))))
(assert (forall ((A Int) (B Int) (C Int) (H Bool)) (=> H (Proc24 C B A H))))
(assert (forall ((A Int) (B Int) (C Int) (H Bool)) (=> H (Proc25 C B A H))))
(assert (forall ((A Int) (B Int) (C Int) (H Bool)) (=> H (Proc26 C B A H))))
(assert (forall ((A Int) (B Int) (C Int) (D Int) (E Int) (H Bool))
  (let ((a!1 (or (not H) (not (and (= E 0) (= D 0))))))
    (=> (not a!1) (Proc27 C B A H E D)))))
(assert (forall ((A Int)
         (B Int)
         (C Int)
         (D Int)
         (E Int)
         (F Int)
         (G Int)
         (H Bool)
         (I Int)
         (J Int)
         (K Int)
         (L Int)
         (M Int)
         (N Int)
         (O Int)
         (P Int)
         (Y Bool)
         (Z Bool)
         (A1 Bool))
  (let ((a!1 (not (and (not (<= P 0)) (Proc28 P O N A1 M))))
        (a!2 (not (and (= E G) (= D L) (= C I) (= Y Z) (= B J)))))
  (let ((a!3 (or (= I 0) (not (and (= G F) (not Z))) a!2))
        (a!4 (or (not (and (= I 0) (= H A1))) (not (and (= G A) (= Z H))) a!2)))
  (let ((a!5 (and (or (= I 1) (and a!3 a!4)) (or (not (= I 1)) (and a!3 a!4)))))
  (let ((a!6 (not (or (not A1)
                      a!1
                      (not (Proc27 M O N A1 L K))
                      (not (Proc26 M L K A1))
                      (not (Proc25 M L K A1))
                      (not (Proc24 M L K A1))
                      (not (Proc29 M L K A1 J I))
                      a!5))))
    (=> a!6 (Proc30 P O N A1 E D C Y B))))))))
(assert (forall ((A Int) (B Int) (C Int) (D Int) (E Int) (H Bool))
  (let ((a!1 (or (not H) (not (= E (- 1073741823))) (not (= D E)))))
    (=> (not a!1) (Proc31 C B A H D)))))
(assert (forall ((A Int) (B Int) (C Int) (D Int) (H Bool)) (=> H (Proc17 D C B H A))))
(assert (forall ((A Int)
         (B Int)
         (C Int)
         (D Int)
         (E Int)
         (F Int)
         (G Int)
         (H Bool)
         (I Int)
         (J Int)
         (K Int)
         (L Int)
         (M Int)
         (N Int)
         (O Int)
         (P Int)
         (Q Int)
         (R Int))
  (let ((a!1 (and (not (<= P (+ 1 R))) (not (<= P Q))))
        (a!2 (not (and (= G J) (= F K) (= E L)))))
  (let ((a!3 (or (not (= L 1)) (not (and (= K M) (= J I))) a!2))
        (a!4 (or (= L 1)
                 (not (Proc16 M O L H D C B A))
                 (not (and (= K A) (= J B)))
                 a!2)))
  (let ((a!5 (not (or (not H)
                      (not (= R Q))
                      (not a!1)
                      (not (Proc22 P O N H R M L))
                      (and a!3 a!4)))))
    (=> a!5 (Proc19 Q O N H D C G F E)))))))
(assert (forall ((A Int)
         (B Int)
         (C Int)
         (D Int)
         (E Int)
         (F Int)
         (G Int)
         (H Bool)
         (I Int)
         (J Int))
  (let ((a!1 (and (or (not (= J I)) (not (= G J)))
                  (or (not (= J F)) (not (= G J)))
                  (or (not (= J E)) (not (= G J))))))
    (=> (not (or (not H) a!1)) (Proc32 D C B H A G)))))
(assert (forall ((A Int) (B Int) (C Int) (D Int) (E Int) (H Bool))
  (=> (not (or (not H) (= E 0))) (Proc18 D C B H A E))))
(assert (forall ((A Int)
         (B Int)
         (C Int)
         (D Int)
         (E Int)
         (F Int)
         (G Int)
         (H Bool)
         (I Int)
         (J Int))
  (let ((a!1 (or (not H)
                 (not (Proc33 J I G H))
                 (not (Proc12 J I G H F E D C))
                 (not (Proc34 C I G H))
                 (not (and (= B D) (= A C))))))
    (=> (not a!1) (Proc35 J I G H F E B A)))))
(assert (forall ((A Int)
         (B Int)
         (C Int)
         (D Int)
         (E Int)
         (F Int)
         (G Int)
         (H Bool)
         (I Int)
         (J Int)
         (K Int)
         (L Int)
         (M Int)
         (N Int)
         (O Int)
         (P Int)
         (Q Int)
         (R Int)
         (S Int)
         (T Int)
         (U Int)
         (V Int)
         (W Int)
         (X Int)
         (B1 Int)
         (C1 Int)
         (D1 Int)
         (E1 Int)
         (F1 Int)
         (G1 Int)
         (H1 Int)
         (I1 Int)
         (J1 Int)
         (K1 Int)
         (L1 Int)
         (M1 Int)
         (N1 Int)
         (O1 Int)
         (P1 Int)
         (Q1 Int))
  (let ((a!1 (not (and (= D1 F1) (= C1 E1) (= B1 G1))))
        (a!17 (not (and (not (= F 1)) (= J1 I) (= I1 F) (= H1 G)))))
  (let ((a!2 (or (= M1 0)
                 (not (Proc1 P1 O1 N1 H L1 Q1 K1))
                 (not (= J1 K1))
                 (not (and (= I1 N1) (= H1 P1)))
                 (not (Proc38 H1 O1 I1 H J1 Q1))
                 (= Q1 0)
                 (not (= G1 I1))
                 (not (and (= F1 J1) (= E1 H1)))
                 a!1))
        (a!3 (or (= M1 0)
                 (not (Proc31 P1 O1 N1 H X))
                 (not (= J1 X))
                 (not (and (= I1 N1) (= H1 P1)))
                 (not (Proc38 H1 O1 I1 H J1 Q1))
                 (= Q1 0)
                 (not (= G1 I1))
                 (not (and (= F1 J1) (= E1 H1)))
                 a!1))
        (a!4 (or (= M1 0)
                 (not (Proc5 P1 O1 N1 H L1 Q1 W V))
                 (not (= J1 W))
                 (not (and (= I1 N1) (= H1 V)))
                 (not (Proc38 H1 O1 I1 H J1 Q1))
                 (= Q1 0)
                 (not (= G1 I1))
                 (not (and (= F1 J1) (= E1 H1)))
                 a!1))
        (a!5 (or (= M1 0)
                 (not (Proc9 P1 O1 N1 H L1 Q1 U))
                 (not (= J1 U))
                 (not (and (= I1 N1) (= H1 P1)))
                 (not (Proc38 H1 O1 I1 H J1 Q1))
                 (= Q1 0)
                 (not (= G1 I1))
                 (not (and (= F1 J1) (= E1 H1)))
                 a!1))
        (a!6 (or (= M1 0)
                 (not (Proc31 P1 O1 N1 H T))
                 (not (= J1 T))
                 (not (and (= I1 N1) (= H1 P1)))
                 (not (Proc38 H1 O1 I1 H J1 Q1))
                 (= Q1 0)
                 (not (= G1 I1))
                 (not (and (= F1 J1) (= E1 H1)))
                 a!1))
        (a!7 (or (= M1 0)
                 (not (Proc31 P1 O1 N1 H S))
                 (not (= J1 S))
                 (not (and (= I1 N1) (= H1 P1)))
                 (not (Proc38 H1 O1 I1 H J1 Q1))
                 (= Q1 0)
                 (not (= G1 I1))
                 (not (and (= F1 J1) (= E1 H1)))
                 a!1))
        (a!8 (or (= M1 0)
                 (not (Proc31 P1 O1 N1 H R))
                 (not (= J1 R))
                 (not (and (= I1 N1) (= H1 P1)))
                 (not (Proc38 H1 O1 I1 H J1 Q1))
                 (= Q1 0)
                 (not (= G1 I1))
                 (not (and (= F1 J1) (= E1 H1)))
                 a!1))
        (a!9 (or (not (Proc31 P1 O1 N1 H Q))
                 (not (= J1 Q))
                 (not (and (= I1 N1) (= H1 P1)))
                 (not (Proc38 H1 O1 I1 H J1 Q1))
                 (= Q1 0)
                 (not (= G1 I1))
                 (not (and (= F1 J1) (= E1 H1)))
                 a!1))
        (a!10 (or (= M1 0)
                  (not (Proc31 P1 O1 N1 H P))
                  (not (= J1 P))
                  (not (and (= I1 N1) (= H1 P1)))
                  (not (Proc38 H1 O1 I1 H J1 Q1))
                  (= Q1 0)
                  (not (= G1 I1))
                  (not (and (= F1 J1) (= E1 H1)))
                  a!1))
        (a!11 (or (= M1 0)
                  (not (Proc31 P1 O1 N1 H O))
                  (not (= J1 O))
                  (not (and (= I1 N1) (= H1 P1)))
                  (not (Proc38 H1 O1 I1 H J1 Q1))
                  (= Q1 0)
                  (not (= G1 I1))
                  (not (and (= F1 J1) (= E1 H1)))
                  a!1))
        (a!12 (or (= M1 0)
                  (not (Proc31 P1 O1 N1 H N))
                  (not (= J1 N))
                  (not (and (= I1 N1) (= H1 P1)))
                  (not (Proc38 H1 O1 I1 H J1 Q1))
                  (= Q1 0)
                  (not (= G1 I1))
                  (not (and (= F1 J1) (= E1 H1)))
                  a!1))
        (a!13 (or (not (Proc31 P1 O1 N1 H M))
                  (not (= J1 M))
                  (not (and (= I1 N1) (= H1 P1)))
                  (not (Proc38 H1 O1 I1 H J1 Q1))
                  (= Q1 0)
                  (not (= G1 I1))
                  (not (and (= F1 J1) (= E1 H1)))
                  a!1))
        (a!14 (or (= M1 0)
                  (not (Proc31 P1 O1 N1 H L))
                  (not (= J1 L))
                  (not (and (= I1 N1) (= H1 P1)))
                  (not (Proc38 H1 O1 I1 H J1 Q1))
                  (= Q1 0)
                  (not (= G1 I1))
                  (not (and (= F1 J1) (= E1 H1)))
                  a!1))
        (a!15 (or (= M1 0)
                  (not (Proc39 P1 O1 N1 H Q1))
                  (not (Proc3 P1 O1 N1 H L1 Q1 K J))
                  (not (= J1 K))
                  (not (and (= I1 N1) (= H1 J)))
                  (not (Proc38 H1 O1 I1 H J1 Q1))
                  (= Q1 0)
                  (not (= G1 I1))
                  (not (and (= F1 J1) (= E1 H1)))
                  a!1))
        (a!16 (or (not (and (= F 1) (= G1 F) (= F1 E) (= E1 G))) a!1))
        (a!18 (or a!17
                  (not (Proc38 H1 O1 I1 H J1 Q1))
                  (= Q1 0)
                  (not (= G1 I1))
                  (not (and (= F1 J1) (= E1 H1)))
                  a!1))
        (a!19 (or (not (Proc31 P1 O1 N1 H D))
                  (not (= J1 D))
                  (not (and (= I1 N1) (= H1 P1)))
                  (not (Proc38 H1 O1 I1 H J1 Q1))
                  (= Q1 0)
                  (not (= G1 I1))
                  (not (and (= F1 J1) (= E1 H1)))
                  a!1))
        (a!20 (or (not (Proc31 P1 O1 N1 H C))
                  (not (= J1 C))
                  (not (and (= I1 N1) (= H1 P1)))
                  (not (Proc38 H1 O1 I1 H J1 Q1))
                  (= Q1 0)
                  (not (= G1 I1))
                  (not (and (= F1 J1) (= E1 H1)))
                  a!1))
        (a!21 (or (not (Proc23 P1 O1 N1 H))
                  (not (Proc31 P1 O1 N1 H C))
                  (not (= J1 C))
                  (not (and (= I1 N1) (= H1 P1)))
                  (not (Proc38 H1 O1 I1 H J1 Q1))
                  (= Q1 0)
                  (not (= G1 I1))
                  (not (and (= F1 J1) (= E1 H1)))
                  a!1)))
  (let ((a!22 (and (or (= M1 0) (and a!20 a!21))
                   (or (not (= B 1)) (= B 0) (= M1 0) (and a!20 a!21)))))
  (let ((a!23 (and (or (= M1 0) a!22) (or (not (= A 1)) (= A 0) (= M1 0) a!22))))
  (let ((a!24 (and a!2
                   a!3
                   a!4
                   a!5
                   a!6
                   a!7
                   a!8
                   a!9
                   a!10
                   a!11
                   a!12
                   a!13
                   a!14
                   a!15
                   (or (= M1 0)
                       (not (Proc7 P1 O1 N1 H L1 Q1 I G F))
                       (and a!16 a!18))
                   a!19
                   (or (= M1 0) a!23))))
  (let ((a!25 (not (or (not H)
                       (= Q1 0)
                       (not (Proc36 P1 O1 N1 H Q1))
                       (= M1 0)
                       (not (Proc37 P1 O1 N1 H))
                       a!24))))
    (=> a!25 (Proc40 P1 O1 N1 H L1 Q1 D1 C1 B1))))))))))
(assert (forall ((A Int)
         (B Int)
         (C Int)
         (D Int)
         (E Int)
         (F Int)
         (G Int)
         (H Bool)
         (I Int)
         (J Int))
  (let ((a!1 (not (or (not H) (not (Proc32 J I G H F E)) (not (= D 0))))))
    (=> a!1 (Proc15 J I G H C F B A D)))))
(assert (forall ((A Int) (B Int) (C Int) (D Int) (E Int) (H Bool))
  (=> (not (or (not H) (= E 0) (= D 0))) (Proc39 C B A H E))))
(assert (forall ((A Int) (B Int) (C Int) (D Int) (H Bool))
  (=> (not (or (not H) (= D 0))) (Proc36 C B A H D))))
(assert (forall ((A Int)
         (B Int)
         (C Int)
         (D Int)
         (E Int)
         (F Int)
         (G Int)
         (H Bool)
         (I Int)
         (J Int)
         (K Int)
         (L Int)
         (M Int)
         (N Int)
         (O Int)
         (P Int)
         (Q Int)
         (R Int)
         (S Int)
         (T Int)
         (U Int)
         (V Int))
  (let ((a!1 (and (not (<= T (+ 12 V))) (not (<= T U))))
        (a!2 (or (not (= C 1)) (not (and (= B D) (= A C)))))
        (a!3 (or (= C 1) (not (and (= B D) (= A C))))))
  (let ((a!4 (not (or (not H)
                      (not (= V U))
                      (not a!1)
                      (not (Proc13 T S R H Q V P O))
                      (not (<= 0 P))
                      (not (= N 1))
                      (= N 0)
                      (not (Proc35 O S R H M L K J))
                      (not (<= 0 K))
                      (not (= I 1))
                      (= I 0)
                      (not (Proc41 J S R H))
                      (not (Proc40 J S R H G F E D C))
                      (and a!2 a!3)))))
    (=> a!4 (Proc29 U S R H B A))))))
(assert (forall ((A Int) (B Int) (C Int) (H Bool)) (=> H (Proc33 C B A H))))
(assert (forall ((A Int) (B Int) (C Int) (H Bool)) (=> H (Proc34 C B A H))))
(assert (forall ((A Int) (B Int) (C Int) (H Bool)) (=> H (Proc37 C B A H))))
(assert (forall ((A Int) (B Int) (C Int) (D Int) (E Int) (H Bool))
  (=> H (Proc38 E D C H B A))))
(assert (forall ((A Int) (B Int) (C Int) (H Bool)) (=> H (Proc41 C B A H))))
(assert (forall ((A Int)
         (B Int)
         (C Int)
         (D Int)
         (E Int)
         (F Int)
         (G Int)
         (H Bool)
         (I Int)
         (J Int)
         (K Int)
         (L Int)
         (M Int)
         (N Int)
         (O Int)
         (P Int)
         (Q Int)
         (R Int)
         (S Int)
         (T Int)
         (U Int)
         (V Int)
         (W Int)
         (X Int)
         (B1 Int)
         (C1 Int)
         (D1 Int)
         (E1 Int)
         (F1 Int)
         (G1 Int)
         (H1 Int)
         (I1 Int)
         (J1 Int)
         (K1 Int)
         (L1 Int)
         (M1 Int)
         (N1 Int)
         (O1 Int)
         (P1 Int)
         (Q1 Int)
         (R1 Int)
         (S1 Int)
         (T1 Int)
         (U1 Int)
         (V1 Int)
         (W1 Int)
         (X1 Int)
         (Y1 Int)
         (Z1 Int)
         (A2 Int)
         (B2 Int)
         (C2 Int)
         (D2 Int)
         (E2 Int)
         (F2 Int)
         (G2 Int)
         (H2 Int))
  (let ((a!1 (and (= H2 G2) (not (<= F2 (+ 4 H2)))))
        (a!2 (and (not (<= F2 G2))
                  (= E2 F2)
                  (not (<= D2 (+ 332 E2)))
                  (not (<= D2 F2))))
        (a!3 (and (= C2 D2)
                  (not (<= B2 (+ 4 C2)))
                  (not (<= B2 D2))
                  (= A2 B2)
                  (not (<= Z1 (+ 536 A2)))
                  (not (<= Z1 B2))
                  (= Y1 Z1)
                  (not (<= X1 (+ 240 Y1)))))
        (a!4 (and (not (<= X1 Z1))
                  (= W1 X1)
                  (not (<= V1 (+ 240 W1)))
                  (not (<= V1 X1))
                  (= U1 V1)
                  (not (<= T1 (+ 536 U1)))
                  (not (<= T1 V1))
                  (= S1 T1)
                  (not (<= R1 (+ 240 S1)))
                  (not (<= R1 T1))
                  (= Q1 R1)
                  (not (<= P1 (+ 4 Q1)))
                  (not (<= P1 R1))
                  (= O1 P1)
                  (not (<= N1 (+ 536 O1)))
                  (not (<= N1 P1))
                  (= M1 N1)
                  (not (<= L1 (+ 332 M1)))
                  (not (<= L1 N1))
                  (= K1 L1)
                  (not (<= J1 (+ 240 K1)))
                  (not (<= J1 L1))
                  (= I1 J1)
                  (not (<= H1 (+ 240 I1)))
                  (not (<= H1 J1))
                  (= G1 H1)
                  (not (<= F1 (+ 332 G1)))
                  (not (<= F1 H1))
                  (= E1 F1)
                  (not (<= D1 (+ 4 E1)))
                  (not (<= D1 F1))
                  (= C1 D1)
                  (not (<= B1 (+ 68 C1)))
                  (not (<= B1 D1))
                  (= X B1)
                  (not (<= W (+ 536 X)))
                  (not (<= W B1))
                  (= V W)
                  (not (<= U (+ 240 V)))
                  (not (<= U W))
                  (= T U)
                  (not (<= S (+ 240 T)))
                  (not (<= S U))
                  (= R S)
                  (not (<= Q (+ 240 R)))
                  (not (<= Q S))
                  (= P Q)
                  (not (<= O (+ 240 P)))
                  (not (<= O Q))
                  (= N O)
                  (not (<= M (+ 240 N)))
                  (not (<= M O))
                  (= L M)
                  (not (<= K (+ 40 L)))
                  (not (<= K M))
                  (= J K)
                  (not (<= I (+ 332 J)))
                  (not (<= I K))
                  (= G I)
                  (not (<= F (+ 4 G)))
                  (not (<= F I))
                  (= E F)
                  (not (<= D (+ 40 E)))
                  (not (<= D F)))))
  (let ((a!5 (not (or (not H)
                      (not a!1)
                      (not a!2)
                      (not a!3)
                      (not a!4)
                      (not (= C D))))))
    (=> a!5 (Proc28 G2 B A H C))))))
(assert (forall ((A Int)
         (B Int)
         (C Int)
         (D Int)
         (E Int)
         (F Int)
         (G Int)
         (H Bool)
         (I Int)
         (J Int)
         (K Int)
         (L Int)
         (Y Bool)
         (Z Bool))
  (let ((a!1 (or (not Z) (not (and (Proc30 L K J true I G F Y E) (not Y))))))
    (=> (not a!1) (Proc42 L K J Z D H C B A)))))
(assert (let ((a!1 (exists ((V0 Int)
                    (V1 Int)
                    (V2 Int)
                    (V3 Bool)
                    (V4 Int)
                    (V5 Bool)
                    (V6 Int)
                    (V7 Int)
                    (V8 Int))
             (not (=> (and (Proc42 V0 V1 V2 V3 V4 V5 V6 V7 V8) (not false))
                      false)))))
  (not a!1)))

(check-sat)
